param n := 120;
param c := 3000
param : V : p w :=
   0	  26	 377
   1	   3	 284
   2	  91	 339
   3	  46	 366
   4	  13	 260
   5	  97	 374
   6	  44	 469
   7	  63	 253
   8	  27	 278
   9	  56	 397
  10	  34	 292
  11	  65	 311
  12	  65	 429
  13	  43	 260
  14	  16	 311
  15	  56	 448
  16	  81	 253
  17	  81	 299
  18	   5	 428
  19	  54	 269
  20	  14	 303
  21	  80	 491
  22	  87	 251
  23	  93	 258
  24	   8	 357
  25	   6	 265
  26	  74	 378
  27	  86	 350
  28	  14	 320
  29	   5	 330
  30	  94	 453
  31	  95	 250
  32	  39	 297
  33	  50	 380
  34	  80	 260
  35	   4	 360
  36	  41	 471
  37	  72	 258
  38	  35	 271
  39	  15	 391
  40	  34	 290
  41	  22	 319
  42	  75	 465
  43	  33	 254
  44	  46	 281
  45	  61	 420
  46	  71	 254
  47	  38	 326
  48	  94	 404
  49	  57	 297
  50	  11	 299
  51	  29	 364
  52	  62	 300
  53	  40	 336
  54	  59	 370
  55	  10	 303
  56	  70	 327
  57	  99	 358
  58	  16	 269
  59	  75	 373
  60	  26	 371
  61	  51	 254
  62	  88	 375
  63	  74	 451
  64	  69	 257
  65	  16	 292
  66	  67	 380
  67	  72	 295
  68	  15	 325
  69	  11	 357
  70	  50	 273
  71	  11	 370
  72	  60	 359
  73	  58	 318
  74	  37	 323
  75	  61	 457
  76	  46	 262
  77	  21	 281
  78	  86	 441
  79	  31	 255
  80	  75	 304
  81	   7	 468
  82	  93	 257
  83	  39	 275
  84	  90	 491
  85	  19	 252
  86	   6	 257
  87	  88	 359
  88	   3	 266
  89	   9	 375
  90	  47	 459
  91	  90	 252
  92	  44	 289
  93	  89	 427
  94	  62	 252
  95	   9	 321
  96	   8	 461
  97	  90	 263
  98	  76	 276
  99	  69	 425
 100	  14	 286
 101	  24	 289
 102	  12	 360
 103	  19	 277
 104	  17	 363
 105	  68	 402
 106	  28	 297
 107	  99	 301
 108	  58	 455
 109	  61	 260
 110	  14	 285
 111	 100	 493
 112	  55	 250
 113	  43	 257
 114	  70	 378
 115	  88	 299
 116	  41	 323
 117	  46	 390
 118	  93	 285
 119	  30	 325
;

set E :=
   0	   4
   0	   6
   0	   7
   0	   8
   0	   9
   0	  11
   0	  13
   0	  14
   0	  16
   0	  18
   0	  21
   0	  26
   0	  28
   0	  32
   0	  36
   0	  39
   0	  40
   0	  42
   0	  43
   0	  44
   0	  45
   0	  46
   0	  48
   0	  50
   0	  51
   0	  54
   0	  55
   0	  58
   0	  61
   0	  64
   0	  65
   0	  69
   0	  70
   0	  73
   0	  74
   0	  75
   0	  76
   0	  78
   0	  79
   0	  80
   0	  84
   0	  85
   0	  86
   0	  91
   0	  92
   0	  98
   0	  99
   0	 101
   0	 102
   0	 103
   0	 104
   0	 105
   0	 106
   0	 107
   0	 108
   0	 110
   0	 113
   0	 117
   0	 118
   1	   3
   1	   5
   1	   6
   1	  11
   1	  13
   1	  14
   1	  20
   1	  23
   1	  24
   1	  28
   1	  29
   1	  30
   1	  33
   1	  35
   1	  37
   1	  39
   1	  40
   1	  41
   1	  42
   1	  46
   1	  50
   1	  52
   1	  54
   1	  56
   1	  57
   1	  59
   1	  60
   1	  64
   1	  66
   1	  72
   1	  74
   1	  79
   1	  80
   1	  82
   1	  85
   1	  86
   1	  87
   1	  89
   1	  92
   1	  93
   1	  94
   1	 101
   1	 112
   1	 114
   1	 115
   1	 118
   2	   3
   2	   4
   2	   5
   2	   6
   2	  10
   2	  12
   2	  16
   2	  19
   2	  21
   2	  22
   2	  27
   2	  29
   2	  30
   2	  32
   2	  35
   2	  39
   2	  41
   2	  42
   2	  44
   2	  46
   2	  47
   2	  48
   2	  50
   2	  52
   2	  55
   2	  59
   2	  60
   2	  63
   2	  64
   2	  69
   2	  70
   2	  71
   2	  72
   2	  81
   2	  88
   2	  89
   2	  92
   2	  95
   2	  96
   2	 100
   2	 102
   2	 106
   2	 110
   2	 111
   2	 113
   2	 114
   2	 116
   2	 119
   3	   6
   3	   9
   3	  10
   3	  12
   3	  14
   3	  26
   3	  27
   3	  28
   3	  32
   3	  34
   3	  38
   3	  39
   3	  40
   3	  41
   3	  43
   3	  45
   3	  46
   3	  47
   3	  48
   3	  55
   3	  56
   3	  57
   3	  62
   3	  65
   3	  68
   3	  72
   3	  73
   3	  76
   3	  77
   3	  79
   3	  83
   3	  85
   3	  91
   3	  92
   3	  94
   3	  97
   3	  98
   3	  99
   3	 101
   3	 104
   3	 106
   3	 107
   3	 110
   3	 111
   3	 116
   3	 117
   3	 118
   4	   5
   4	  10
   4	  13
   4	  16
   4	  22
   4	  26
   4	  27
   4	  28
   4	  30
   4	  33
   4	  35
   4	  38
   4	  41
   4	  42
   4	  45
   4	  47
   4	  52
   4	  54
   4	  56
   4	  58
   4	  59
   4	  60
   4	  61
   4	  63
   4	  64
   4	  66
   4	  67
   4	  68
   4	  70
   4	  73
   4	  76
   4	  78
   4	  79
   4	  80
   4	  84
   4	  85
   4	  92
   4	  96
   4	  97
   4	  98
   4	 102
   4	 103
   4	 104
   4	 106
   4	 109
   4	 110
   4	 111
   4	 112
   4	 113
   4	 114
   5	   6
   5	   7
   5	   9
   5	  12
   5	  15
   5	  16
   5	  17
   5	  18
   5	  19
   5	  23
   5	  26
   5	  27
   5	  31
   5	  34
   5	  39
   5	  46
   5	  47
   5	  51
   5	  52
   5	  53
   5	  54
   5	  55
   5	  56
   5	  57
   5	  59
   5	  63
   5	  64
   5	  66
   5	  71
   5	  72
   5	  75
   5	  76
   5	  77
   5	  79
   5	  81
   5	  85
   5	  86
   5	  87
   5	  89
   5	  90
   5	  93
   5	  98
   5	 104
   5	 106
   5	 108
   5	 109
   5	 110
   5	 111
   5	 116
   5	 117
   6	   7
   6	   8
   6	  13
   6	  14
   6	  15
   6	  16
   6	  19
   6	  20
   6	  21
   6	  26
   6	  29
   6	  32
   6	  34
   6	  36
   6	  37
   6	  40
   6	  44
   6	  46
   6	  47
   6	  48
   6	  51
   6	  52
   6	  58
   6	  59
   6	  61
   6	  63
   6	  64
   6	  65
   6	  67
   6	  68
   6	  69
   6	  71
   6	  72
   6	  73
   6	  75
   6	  77
   6	  78
   6	  80
   6	  89
   6	  90
   6	  95
   6	  99
   6	 100
   6	 105
   6	 112
   6	 116
   6	 119
   7	   8
   7	  11
   7	  14
   7	  16
   7	  18
   7	  23
   7	  27
   7	  31
   7	  34
   7	  36
   7	  38
   7	  39
   7	  42
   7	  44
   7	  46
   7	  47
   7	  51
   7	  52
   7	  55
   7	  61
   7	  65
   7	  70
   7	  71
   7	  78
   7	  79
   7	  83
   7	  87
   7	  90
   7	  93
   7	  95
   7	  98
   7	 100
   7	 101
   7	 111
   7	 112
   7	 114
   7	 117
   7	 119
   8	  10
   8	  11
   8	  12
   8	  15
   8	  16
   8	  17
   8	  19
   8	  20
   8	  21
   8	  24
   8	  26
   8	  27
   8	  28
   8	  31
   8	  32
   8	  33
   8	  36
   8	  41
   8	  46
   8	  48
   8	  51
   8	  52
   8	  55
   8	  57
   8	  59
   8	  61
   8	  62
   8	  65
   8	  66
   8	  69
   8	  70
   8	  71
   8	  72
   8	  74
   8	  75
   8	  76
   8	  78
   8	  83
   8	  84
   8	  89
   8	  91
   8	  93
   8	  94
   8	  95
   8	  96
   8	 101
   8	 104
   8	 107
   8	 108
   8	 110
   8	 111
   8	 112
   8	 114
   8	 116
   8	 118
   9	  10
   9	  12
   9	  14
   9	  18
   9	  19
   9	  21
   9	  22
   9	  24
   9	  27
   9	  31
   9	  33
   9	  35
   9	  38
   9	  41
   9	  42
   9	  43
   9	  45
   9	  46
   9	  47
   9	  48
   9	  49
   9	  50
   9	  54
   9	  60
   9	  63
   9	  66
   9	  79
   9	  82
   9	  87
   9	  96
   9	  98
   9	 101
   9	 103
   9	 106
   9	 108
   9	 109
   9	 111
   9	 112
   9	 114
   9	 115
  10	  12
  10	  13
  10	  14
  10	  15
  10	  16
  10	  20
  10	  22
  10	  23
  10	  29
  10	  31
  10	  39
  10	  40
  10	  45
  10	  58
  10	  59
  10	  63
  10	  67
  10	  69
  10	  70
  10	  72
  10	  76
  10	  77
  10	  79
  10	  81
  10	  83
  10	  88
  10	  90
  10	  91
  10	  96
  10	 100
  10	 102
  10	 107
  10	 108
  10	 110
  10	 115
  10	 117
  10	 118
  10	 119
  11	  12
  11	  15
  11	  16
  11	  19
  11	  20
  11	  22
  11	  28
  11	  32
  11	  33
  11	  34
  11	  36
  11	  37
  11	  40
  11	  42
  11	  43
  11	  45
  11	  48
  11	  49
  11	  52
  11	  61
  11	  62
  11	  72
  11	  74
  11	  75
  11	  77
  11	  82
  11	  83
  11	  85
  11	  89
  11	  90
  11	  91
  11	  92
  11	  95
  11	  96
  11	  97
  11	  99
  11	 100
  11	 101
  11	 102
  11	 104
  11	 106
  11	 110
  11	 111
  11	 116
  11	 117
  11	 118
  11	 119
  12	  17
  12	  18
  12	  25
  12	  27
  12	  31
  12	  33
  12	  37
  12	  40
  12	  45
  12	  61
  12	  65
  12	  66
  12	  68
  12	  72
  12	  77
  12	  84
  12	  96
  12	  98
  12	 102
  12	 104
  12	 105
  12	 107
  12	 108
  12	 110
  12	 111
  12	 112
  12	 119
  13	  18
  13	  19
  13	  23
  13	  25
  13	  26
  13	  30
  13	  32
  13	  35
  13	  37
  13	  40
  13	  41
  13	  42
  13	  43
  13	  49
  13	  50
  13	  52
  13	  56
  13	  57
  13	  59
  13	  62
  13	  63
  13	  65
  13	  66
  13	  67
  13	  71
  13	  72
  13	  74
  13	  75
  13	  77
  13	  78
  13	  85
  13	  87
  13	  89
  13	  90
  13	  91
  13	  92
  13	  93
  13	  95
  13	  96
  13	  99
  13	 103
  13	 105
  13	 106
  13	 108
  13	 109
  13	 111
  13	 115
  13	 116
  13	 117
  14	  15
  14	  16
  14	  21
  14	  26
  14	  27
  14	  28
  14	  32
  14	  37
  14	  41
  14	  43
  14	  45
  14	  51
  14	  52
  14	  57
  14	  58
  14	  60
  14	  61
  14	  62
  14	  68
  14	  76
  14	  77
  14	  80
  14	  84
  14	  86
  14	  87
  14	  88
  14	  89
  14	  90
  14	  91
  14	  94
  14	  95
  14	 101
  14	 108
  14	 115
  15	  16
  15	  17
  15	  18
  15	  19
  15	  23
  15	  27
  15	  31
  15	  32
  15	  34
  15	  35
  15	  36
  15	  39
  15	  41
  15	  43
  15	  44
  15	  45
  15	  48
  15	  49
  15	  50
  15	  51
  15	  52
  15	  54
  15	  61
  15	  62
  15	  66
  15	  67
  15	  71
  15	  72
  15	  76
  15	  79
  15	  80
  15	  85
  15	  92
  15	  95
  15	 100
  15	 105
  15	 109
  15	 113
  15	 114
  16	  19
  16	  20
  16	  23
  16	  25
  16	  28
  16	  31
  16	  32
  16	  35
  16	  36
  16	  37
  16	  38
  16	  40
  16	  43
  16	  50
  16	  53
  16	  54
  16	  63
  16	  64
  16	  66
  16	  70
  16	  76
  16	  77
  16	  78
  16	  82
  16	  84
  16	  90
  16	  93
  16	  94
  16	  98
  16	 100
  16	 101
  16	 104
  16	 105
  16	 110
  16	 113
  16	 114
  16	 115
  16	 116
  16	 117
  17	  19
  17	  21
  17	  26
  17	  28
  17	  32
  17	  33
  17	  37
  17	  38
  17	  39
  17	  40
  17	  43
  17	  44
  17	  48
  17	  50
  17	  51
  17	  53
  17	  55
  17	  56
  17	  58
  17	  62
  17	  66
  17	  67
  17	  69
  17	  73
  17	  75
  17	  79
  17	  80
  17	  81
  17	  85
  17	  89
  17	  95
  17	  96
  17	 100
  17	 102
  17	 107
  17	 113
  17	 114
  17	 116
  17	 117
  18	  19
  18	  22
  18	  26
  18	  32
  18	  33
  18	  37
  18	  39
  18	  40
  18	  44
  18	  49
  18	  50
  18	  53
  18	  56
  18	  58
  18	  59
  18	  60
  18	  65
  18	  66
  18	  68
  18	  71
  18	  72
  18	  75
  18	  78
  18	  80
  18	  82
  18	  83
  18	  86
  18	  89
  18	  90
  18	  91
  18	  92
  18	  94
  18	  95
  18	  96
  18	 103
  18	 105
  18	 107
  18	 110
  18	 113
  18	 114
  18	 118
  19	  23
  19	  24
  19	  25
  19	  26
  19	  28
  19	  29
  19	  31
  19	  33
  19	  36
  19	  37
  19	  41
  19	  44
  19	  46
  19	  49
  19	  50
  19	  51
  19	  52
  19	  56
  19	  57
  19	  58
  19	  60
  19	  62
  19	  66
  19	  69
  19	  73
  19	  74
  19	  75
  19	  76
  19	  83
  19	  87
  19	  91
  19	  92
  19	  93
  19	  99
  19	 103
  19	 106
  19	 108
  19	 109
  19	 112
  19	 117
  20	  24
  20	  25
  20	  32
  20	  35
  20	  38
  20	  40
  20	  41
  20	  43
  20	  45
  20	  46
  20	  48
  20	  53
  20	  57
  20	  58
  20	  59
  20	  61
  20	  65
  20	  66
  20	  73
  20	  75
  20	  77
  20	  78
  20	  81
  20	  82
  20	  86
  20	  87
  20	  95
  20	 100
  20	 106
  20	 107
  20	 108
  20	 113
  20	 117
  20	 118
  20	 119
  21	  22
  21	  25
  21	  27
  21	  28
  21	  30
  21	  33
  21	  34
  21	  35
  21	  37
  21	  38
  21	  39
  21	  42
  21	  43
  21	  45
  21	  47
  21	  50
  21	  54
  21	  59
  21	  62
  21	  63
  21	  64
  21	  65
  21	  67
  21	  68
  21	  70
  21	  71
  21	  72
  21	  75
  21	  77
  21	  78
  21	  79
  21	  80
  21	  87
  21	  88
  21	  91
  21	  93
  21	  94
  21	  97
  21	  99
  21	 101
  21	 102
  21	 103
  21	 106
  21	 108
  21	 109
  21	 110
  21	 111
  21	 113
  21	 114
  21	 116
  21	 117
  21	 118
  21	 119
  22	  25
  22	  30
  22	  34
  22	  36
  22	  38
  22	  44
  22	  45
  22	  46
  22	  48
  22	  50
  22	  52
  22	  53
  22	  55
  22	  56
  22	  57
  22	  58
  22	  63
  22	  64
  22	  65
  22	  66
  22	  68
  22	  72
  22	  75
  22	  78
  22	  81
  22	  82
  22	  85
  22	  88
  22	  90
  22	  91
  22	  99
  22	 100
  22	 101
  22	 104
  22	 105
  22	 106
  22	 107
  22	 108
  22	 109
  22	 111
  22	 113
  22	 115
  22	 116
  22	 118
  22	 119
  23	  30
  23	  32
  23	  33
  23	  34
  23	  41
  23	  42
  23	  47
  23	  52
  23	  56
  23	  57
  23	  60
  23	  61
  23	  64
  23	  65
  23	  66
  23	  67
  23	  70
  23	  72
  23	  75
  23	  76
  23	  82
  23	  83
  23	  86
  23	  93
  23	  95
  23	  96
  23	 103
  23	 104
  23	 105
  23	 112
  23	 114
  23	 116
  23	 118
  23	 119
  24	  30
  24	  36
  24	  38
  24	  40
  24	  42
  24	  44
  24	  48
  24	  51
  24	  52
  24	  54
  24	  60
  24	  62
  24	  64
  24	  65
  24	  66
  24	  70
  24	  72
  24	  73
  24	  77
  24	  78
  24	  80
  24	  83
  24	  84
  24	  85
  24	  89
  24	  90
  24	  91
  24	  92
  24	  97
  24	 100
  24	 101
  24	 106
  24	 109
  24	 112
  24	 113
  24	 119
  25	  26
  25	  28
  25	  29
  25	  33
  25	  37
  25	  38
  25	  39
  25	  41
  25	  42
  25	  45
  25	  46
  25	  51
  25	  54
  25	  57
  25	  60
  25	  64
  25	  76
  25	  78
  25	  82
  25	  83
  25	  89
  25	  90
  25	  96
  25	 105
  25	 109
  25	 110
  25	 115
  25	 119
  26	  27
  26	  30
  26	  34
  26	  35
  26	  38
  26	  39
  26	  40
  26	  42
  26	  43
  26	  45
  26	  46
  26	  48
  26	  49
  26	  51
  26	  53
  26	  54
  26	  56
  26	  60
  26	  62
  26	  64
  26	  65
  26	  70
  26	  71
  26	  75
  26	  76
  26	  79
  26	  86
  26	  87
  26	  89
  26	  91
  26	  95
  26	  97
  26	 100
  26	 106
  26	 107
  26	 108
  26	 109
  26	 111
  26	 116
  26	 119
  27	  28
  27	  29
  27	  34
  27	  39
  27	  42
  27	  45
  27	  52
  27	  53
  27	  62
  27	  63
  27	  67
  27	  72
  27	  75
  27	  78
  27	  80
  27	  84
  27	  87
  27	  90
  27	  91
  27	  92
  27	  94
  27	  99
  27	 101
  27	 105
  27	 106
  27	 107
  27	 112
  27	 117
  27	 118
  27	 119
  28	  29
  28	  39
  28	  41
  28	  43
  28	  45
  28	  48
  28	  49
  28	  50
  28	  51
  28	  52
  28	  53
  28	  59
  28	  67
  28	  68
  28	  73
  28	  75
  28	  79
  28	  82
  28	  83
  28	  92
  28	  96
  28	  97
  28	  98
  28	  99
  28	 101
  28	 103
  28	 106
  28	 108
  28	 110
  28	 111
  28	 112
  28	 114
  28	 115
  28	 118
  28	 119
  29	  30
  29	  31
  29	  34
  29	  37
  29	  38
  29	  39
  29	  41
  29	  45
  29	  46
  29	  53
  29	  59
  29	  60
  29	  61
  29	  69
  29	  71
  29	  73
  29	  75
  29	  78
  29	  81
  29	  82
  29	  83
  29	  84
  29	  85
  29	  87
  29	  88
  29	  90
  29	  92
  29	  93
  29	  95
  29	  98
  29	 100
  29	 101
  29	 103
  29	 105
  29	 107
  29	 109
  29	 110
  29	 111
  29	 113
  29	 115
  29	 116
  29	 118
  30	  34
  30	  36
  30	  39
  30	  42
  30	  46
  30	  48
  30	  49
  30	  50
  30	  51
  30	  53
  30	  54
  30	  56
  30	  59
  30	  62
  30	  63
  30	  64
  30	  65
  30	  66
  30	  67
  30	  69
  30	  74
  30	  76
  30	  79
  30	  80
  30	  85
  30	  88
  30	  89
  30	  93
  30	  97
  30	 101
  30	 102
  30	 103
  30	 105
  30	 110
  30	 115
  30	 116
  31	  37
  31	  46
  31	  49
  31	  51
  31	  58
  31	  60
  31	  61
  31	  65
  31	  69
  31	  70
  31	  71
  31	  76
  31	  78
  31	  80
  31	  81
  31	  84
  31	  85
  31	  86
  31	  87
  31	  91
  31	  94
  31	  98
  31	  99
  31	 101
  31	 102
  31	 103
  31	 106
  31	 107
  31	 110
  31	 112
  31	 113
  31	 116
  31	 119
  32	  33
  32	  35
  32	  37
  32	  38
  32	  42
  32	  45
  32	  48
  32	  50
  32	  51
  32	  52
  32	  53
  32	  54
  32	  57
  32	  58
  32	  60
  32	  62
  32	  63
  32	  65
  32	  67
  32	  69
  32	  71
  32	  74
  32	  81
  32	  83
  32	  84
  32	  85
  32	  87
  32	  90
  32	  91
  32	  92
  32	  93
  32	  95
  32	 101
  32	 106
  32	 108
  32	 109
  32	 110
  32	 111
  32	 114
  32	 116
  32	 117
  32	 119
  33	  36
  33	  38
  33	  40
  33	  45
  33	  46
  33	  47
  33	  48
  33	  50
  33	  53
  33	  54
  33	  55
  33	  60
  33	  61
  33	  62
  33	  64
  33	  69
  33	  72
  33	  73
  33	  79
  33	  80
  33	  85
  33	  87
  33	  88
  33	  90
  33	  91
  33	  95
  33	  96
  33	 101
  33	 105
  33	 106
  33	 108
  33	 113
  33	 114
  33	 115
  33	 116
  33	 117
  34	  35
  34	  45
  34	  48
  34	  52
  34	  53
  34	  55
  34	  56
  34	  57
  34	  59
  34	  61
  34	  63
  34	  64
  34	  67
  34	  68
  34	  71
  34	  76
  34	  77
  34	  79
  34	  80
  34	  81
  34	  82
  34	  83
  34	  85
  34	  86
  34	  90
  34	  92
  34	  96
  34	  97
  34	  98
  34	  99
  34	 100
  34	 103
  34	 106
  34	 107
  34	 108
  34	 109
  34	 111
  34	 113
  35	  36
  35	  39
  35	  41
  35	  45
  35	  46
  35	  47
  35	  48
  35	  50
  35	  53
  35	  55
  35	  57
  35	  59
  35	  61
  35	  63
  35	  66
  35	  68
  35	  69
  35	  71
  35	  72
  35	  74
  35	  76
  35	  78
  35	  81
  35	  84
  35	  85
  35	  86
  35	  87
  35	  92
  35	  93
  35	  95
  35	  98
  35	 100
  35	 101
  35	 103
  35	 106
  35	 108
  35	 109
  35	 110
  35	 111
  35	 114
  35	 115
  35	 116
  35	 118
  36	  37
  36	  40
  36	  41
  36	  42
  36	  47
  36	  50
  36	  51
  36	  52
  36	  53
  36	  54
  36	  55
  36	  57
  36	  59
  36	  60
  36	  61
  36	  63
  36	  64
  36	  65
  36	  66
  36	  68
  36	  70
  36	  71
  36	  72
  36	  75
  36	  79
  36	  83
  36	  84
  36	  86
  36	  91
  36	  96
  36	  97
  36	  98
  36	 102
  36	 103
  36	 104
  36	 111
  36	 113
  36	 116
  36	 117
  36	 118
  37	  39
  37	  40
  37	  41
  37	  43
  37	  46
  37	  48
  37	  50
  37	  51
  37	  53
  37	  55
  37	  58
  37	  60
  37	  62
  37	  63
  37	  64
  37	  65
  37	  66
  37	  70
  37	  72
  37	  73
  37	  78
  37	  79
  37	  83
  37	  89
  37	  94
  37	  95
  37	  96
  37	  97
  37	  98
  37	  99
  37	 101
  37	 105
  37	 106
  37	 108
  38	  40
  38	  43
  38	  45
  38	  46
  38	  48
  38	  49
  38	  50
  38	  52
  38	  53
  38	  55
  38	  58
  38	  59
  38	  61
  38	  65
  38	  66
  38	  68
  38	  71
  38	  72
  38	  76
  38	  79
  38	  80
  38	  81
  38	  86
  38	  87
  38	  88
  38	  89
  38	  91
  38	  92
  38	  99
  38	 106
  38	 112
  38	 117
  39	  41
  39	  42
  39	  45
  39	  51
  39	  52
  39	  53
  39	  54
  39	  55
  39	  58
  39	  64
  39	  66
  39	  67
  39	  69
  39	  71
  39	  73
  39	  75
  39	  78
  39	  80
  39	  83
  39	  84
  39	  86
  39	  87
  39	  91
  39	  93
  39	  96
  39	  99
  39	 101
  39	 102
  39	 103
  39	 107
  39	 111
  39	 112
  39	 113
  39	 115
  39	 117
  39	 119
  40	  45
  40	  50
  40	  51
  40	  53
  40	  56
  40	  57
  40	  61
  40	  64
  40	  68
  40	  70
  40	  72
  40	  74
  40	  76
  40	  80
  40	  84
  40	  87
  40	  91
  40	  92
  40	  94
  40	  95
  40	  98
  40	 100
  40	 102
  40	 103
  40	 104
  40	 107
  40	 108
  40	 110
  40	 111
  40	 112
  40	 115
  41	  49
  41	  50
  41	  52
  41	  55
  41	  56
  41	  58
  41	  59
  41	  62
  41	  64
  41	  65
  41	  66
  41	  68
  41	  69
  41	  71
  41	  75
  41	  77
  41	  78
  41	  82
  41	  84
  41	  86
  41	  87
  41	  90
  41	  91
  41	  92
  41	  98
  41	 100
  41	 101
  41	 102
  41	 104
  41	 108
  41	 111
  41	 112
  41	 113
  41	 115
  41	 116
  41	 117
  42	  44
  42	  48
  42	  49
  42	  50
  42	  51
  42	  52
  42	  58
  42	  61
  42	  63
  42	  68
  42	  69
  42	  75
  42	  82
  42	  86
  42	  91
  42	 103
  42	 106
  42	 107
  42	 110
  42	 111
  42	 113
  42	 116
  42	 117
  42	 119
  43	  49
  43	  51
  43	  54
  43	  55
  43	  56
  43	  59
  43	  61
  43	  62
  43	  63
  43	  64
  43	  70
  43	  72
  43	  73
  43	  74
  43	  78
  43	  81
  43	  82
  43	  83
  43	  84
  43	  85
  43	  87
  43	  91
  43	  93
  43	  95
  43	  99
  43	 101
  43	 103
  43	 104
  43	 106
  43	 109
  43	 110
  43	 115
  43	 119
  44	  48
  44	  51
  44	  53
  44	  55
  44	  58
  44	  61
  44	  62
  44	  63
  44	  64
  44	  66
  44	  67
  44	  71
  44	  73
  44	  74
  44	  76
  44	  80
  44	  81
  44	  83
  44	  86
  44	  87
  44	  90
  44	  92
  44	  94
  44	  97
  44	  99
  44	 100
  44	 103
  44	 105
  44	 110
  44	 113
  44	 114
  44	 116
  44	 117
  44	 119
  45	  49
  45	  50
  45	  55
  45	  57
  45	  60
  45	  61
  45	  66
  45	  68
  45	  69
  45	  70
  45	  71
  45	  77
  45	  86
  45	  89
  45	  91
  45	  96
  45	  99
  45	 102
  45	 106
  45	 109
  45	 111
  45	 112
  45	 116
  45	 117
  46	  47
  46	  48
  46	  51
  46	  52
  46	  56
  46	  65
  46	  70
  46	  75
  46	  76
  46	  78
  46	  79
  46	  80
  46	  84
  46	  85
  46	  94
  46	  98
  46	  99
  46	 100
  46	 101
  46	 103
  46	 105
  46	 106
  46	 107
  46	 108
  46	 109
  46	 110
  46	 111
  46	 114
  46	 115
  46	 116
  47	  51
  47	  53
  47	  56
  47	  65
  47	  67
  47	  69
  47	  70
  47	  71
  47	  72
  47	  79
  47	  80
  47	  82
  47	  87
  47	  90
  47	  91
  47	  92
  47	  93
  47	  95
  47	 101
  47	 103
  47	 105
  47	 109
  47	 112
  47	 114
  47	 117
  47	 119
  48	  49
  48	  51
  48	  56
  48	  57
  48	  58
  48	  59
  48	  60
  48	  62
  48	  64
  48	  65
  48	  67
  48	  69
  48	  71
  48	  72
  48	  76
  48	  78
  48	  82
  48	  83
  48	  84
  48	  85
  48	  86
  48	  94
  48	  99
  48	 102
  48	 104
  48	 106
  48	 108
  48	 109
  48	 118
  49	  51
  49	  53
  49	  54
  49	  55
  49	  58
  49	  64
  49	  65
  49	  66
  49	  67
  49	  68
  49	  72
  49	  75
  49	  77
  49	  80
  49	  82
  49	  83
  49	  93
  49	  94
  49	  96
  49	 102
  49	 103
  49	 106
  49	 111
  49	 112
  49	 116
  49	 119
  50	  52
  50	  53
  50	  64
  50	  65
  50	  69
  50	  72
  50	  79
  50	  82
  50	  83
  50	  86
  50	  87
  50	  88
  50	  93
  50	 100
  50	 105
  50	 106
  50	 108
  50	 111
  50	 112
  50	 118
  51	  52
  51	  54
  51	  61
  51	  63
  51	  64
  51	  65
  51	  67
  51	  69
  51	  72
  51	  75
  51	  77
  51	  81
  51	  82
  51	  83
  51	  84
  51	  88
  51	  89
  51	  93
  51	  97
  51	  99
  51	 100
  51	 101
  51	 105
  51	 108
  51	 112
  51	 113
  51	 114
  51	 116
  52	  54
  52	  55
  52	  57
  52	  58
  52	  59
  52	  62
  52	  63
  52	  67
  52	  68
  52	  71
  52	  72
  52	  77
  52	  78
  52	  79
  52	  80
  52	  81
  52	  85
  52	  87
  52	  88
  52	  89
  52	  90
  52	  95
  52	  97
  52	  99
  52	 100
  52	 101
  52	 102
  52	 105
  52	 113
  52	 114
  52	 115
  52	 118
  53	  54
  53	  61
  53	  63
  53	  65
  53	  68
  53	  69
  53	  71
  53	  72
  53	  78
  53	  79
  53	  80
  53	  82
  53	  83
  53	  84
  53	  89
  53	  91
  53	  92
  53	  93
  53	  97
  53	  98
  53	  99
  53	 102
  53	 104
  53	 105
  53	 107
  53	 111
  53	 114
  53	 119
  54	  59
  54	  61
  54	  62
  54	  66
  54	  67
  54	  69
  54	  71
  54	  73
  54	  76
  54	  78
  54	  79
  54	  84
  54	  88
  54	  91
  54	  93
  54	  94
  54	  95
  54	  97
  54	 100
  54	 101
  54	 102
  54	 104
  54	 106
  54	 107
  54	 109
  54	 114
  54	 115
  54	 116
  54	 117
  54	 119
  55	  57
  55	  58
  55	  61
  55	  64
  55	  67
  55	  68
  55	  71
  55	  75
  55	  84
  55	  85
  55	  87
  55	  89
  55	  91
  55	  93
  55	  95
  55	  98
  55	  99
  55	 103
  55	 107
  55	 109
  55	 110
  55	 111
  55	 112
  55	 114
  55	 116
  56	  57
  56	  58
  56	  62
  56	  63
  56	  69
  56	  70
  56	  73
  56	  77
  56	  79
  56	  80
  56	  83
  56	  84
  56	  88
  56	  92
  56	  93
  56	  94
  56	  96
  56	  97
  56	  98
  56	  99
  56	 100
  56	 105
  56	 106
  56	 108
  56	 111
  56	 117
  56	 118
  56	 119
  57	  59
  57	  63
  57	  64
  57	  67
  57	  69
  57	  71
  57	  77
  57	  83
  57	  84
  57	  85
  57	  87
  57	  91
  57	  96
  57	 100
  57	 101
  57	 102
  57	 104
  57	 105
  57	 106
  57	 107
  57	 109
  57	 110
  57	 111
  57	 113
  57	 115
  57	 116
  57	 119
  58	  59
  58	  62
  58	  64
  58	  70
  58	  71
  58	  72
  58	  73
  58	  75
  58	  78
  58	  80
  58	  81
  58	  85
  58	  87
  58	  88
  58	  90
  58	  92
  58	  94
  58	  96
  58	  97
  58	  98
  58	 103
  58	 104
  58	 105
  58	 108
  58	 109
  58	 110
  58	 113
  58	 115
  59	  61
  59	  62
  59	  63
  59	  65
  59	  66
  59	  67
  59	  70
  59	  71
  59	  73
  59	  74
  59	  76
  59	  81
  59	  82
  59	  83
  59	  85
  59	  86
  59	  87
  59	  91
  59	  92
  59	  93
  59	  94
  59	  98
  59	  99
  59	 101
  59	 103
  59	 105
  59	 106
  59	 110
  59	 111
  59	 112
  59	 113
  59	 114
  59	 115
  60	  62
  60	  63
  60	  64
  60	  65
  60	  66
  60	  68
  60	  69
  60	  73
  60	  77
  60	  79
  60	  82
  60	  83
  60	  85
  60	  86
  60	  90
  60	  92
  60	  93
  60	  94
  60	  97
  60	 102
  60	 103
  60	 104
  60	 105
  60	 111
  60	 118
  61	  62
  61	  65
  61	  67
  61	  69
  61	  75
  61	  83
  61	  84
  61	  85
  61	  92
  61	  95
  61	  99
  61	 102
  61	 103
  61	 104
  61	 105
  61	 106
  61	 107
  61	 111
  61	 113
  61	 114
  62	  66
  62	  67
  62	  68
  62	  70
  62	  71
  62	  75
  62	  77
  62	  79
  62	  82
  62	  84
  62	  87
  62	  89
  62	  90
  62	  94
  62	  96
  62	 101
  62	 107
  62	 109
  62	 111
  62	 112
  62	 115
  63	  66
  63	  68
  63	  70
  63	  71
  63	  74
  63	  75
  63	  77
  63	  79
  63	  81
  63	  86
  63	  87
  63	  92
  63	  93
  63	  94
  63	  95
  63	 100
  63	 107
  63	 109
  63	 116
  63	 117
  64	  66
  64	  70
  64	  71
  64	  74
  64	  78
  64	  80
  64	  82
  64	  85
  64	  86
  64	  89
  64	  92
  64	  99
  64	 100
  64	 103
  64	 104
  64	 107
  64	 111
  64	 112
  64	 115
  64	 116
  64	 118
  65	  74
  65	  75
  65	  77
  65	  79
  65	  82
  65	  84
  65	  86
  65	  88
  65	  89
  65	  94
  65	  97
  65	 104
  65	 107
  65	 110
  65	 113
  65	 116
  65	 117
  65	 118
  65	 119
  66	  67
  66	  69
  66	  74
  66	  75
  66	  79
  66	  80
  66	  86
  66	  87
  66	  88
  66	  91
  66	  92
  66	  96
  66	  98
  66	 103
  66	 105
  66	 107
  66	 109
  66	 111
  66	 112
  66	 113
  66	 117
  66	 118
  66	 119
  67	  68
  67	  72
  67	  75
  67	  80
  67	  81
  67	  88
  67	  89
  67	  92
  67	  93
  67	  98
  67	  99
  67	 100
  67	 102
  67	 103
  67	 110
  67	 112
  67	 113
  67	 117
  67	 119
  68	  70
  68	  71
  68	  72
  68	  73
  68	  74
  68	  75
  68	  77
  68	  78
  68	  81
  68	  87
  68	  88
  68	  89
  68	  96
  68	  97
  68	  98
  68	 100
  68	 103
  68	 106
  68	 108
  68	 109
  68	 110
  68	 112
  68	 113
  68	 115
  68	 116
  68	 117
  69	  71
  69	  73
  69	  74
  69	  79
  69	  82
  69	  84
  69	  87
  69	  92
  69	  96
  69	 100
  69	 102
  69	 105
  69	 107
  69	 108
  69	 109
  69	 111
  69	 113
  69	 114
  70	  74
  70	  78
  70	  82
  70	  85
  70	  87
  70	  88
  70	  89
  70	  90
  70	  91
  70	  93
  70	  94
  70	  97
  70	 102
  70	 105
  70	 108
  70	 111
  70	 112
  70	 114
  70	 115
  70	 118
  70	 119
  71	  73
  71	  74
  71	  76
  71	  78
  71	  87
  71	  95
  71	  99
  71	 104
  71	 106
  71	 109
  71	 111
  71	 114
  71	 116
  71	 117
  72	  73
  72	  75
  72	  77
  72	  82
  72	  83
  72	  84
  72	  85
  72	  87
  72	  90
  72	  91
  72	  95
  72	  97
  72	  98
  72	 101
  72	 105
  72	 112
  72	 115
  72	 116
  72	 118
  72	 119
  73	  75
  73	  76
  73	  80
  73	  83
  73	  92
  73	  95
  73	  99
  73	 102
  73	 103
  73	 104
  73	 109
  73	 110
  73	 111
  73	 112
  73	 117
  73	 119
  74	  76
  74	  79
  74	  81
  74	  82
  74	  84
  74	  88
  74	  91
  74	  92
  74	  97
  74	  99
  74	 102
  74	 103
  74	 106
  74	 108
  74	 109
  74	 111
  74	 113
  74	 114
  74	 115
  74	 116
  74	 119
  75	  76
  75	  88
  75	  89
  75	  94
  75	 102
  75	 103
  75	 104
  75	 105
  75	 107
  75	 111
  75	 113
  75	 119
  76	  78
  76	  79
  76	  81
  76	  82
  76	  87
  76	  91
  76	  96
  76	  97
  76	 100
  76	 103
  76	 107
  76	 112
  76	 114
  76	 115
  76	 116
  76	 119
  77	  79
  77	  82
  77	  83
  77	  87
  77	  90
  77	  92
  77	  95
  77	 101
  77	 102
  77	 104
  77	 105
  77	 107
  77	 109
  77	 111
  77	 112
  77	 114
  77	 116
  77	 119
  78	  79
  78	  82
  78	  85
  78	  86
  78	  87
  78	  90
  78	  91
  78	  92
  78	  94
  78	  96
  78	  99
  78	 103
  78	 106
  78	 107
  78	 108
  78	 109
  78	 111
  78	 112
  78	 114
  78	 115
  78	 117
  78	 119
  79	  80
  79	  81
  79	  87
  79	  90
  79	  91
  79	  92
  79	  93
  79	  96
  79	  98
  79	 102
  79	 105
  79	 106
  79	 107
  79	 111
  79	 114
  79	 117
  80	  81
  80	  83
  80	  85
  80	  86
  80	  87
  80	  92
  80	  95
  80	  96
  80	  97
  80	  99
  80	 101
  80	 107
  80	 108
  80	 109
  80	 110
  80	 112
  80	 115
  80	 119
  81	  82
  81	  84
  81	  88
  81	  90
  81	  91
  81	  95
  81	  97
  81	 101
  81	 106
  81	 108
  81	 110
  81	 111
  81	 113
  81	 115
  81	 117
  81	 119
  82	  85
  82	  87
  82	  93
  82	  94
  82	  99
  82	 100
  82	 105
  82	 106
  82	 112
  82	 113
  82	 117
  82	 118
  82	 119
  83	  84
  83	  89
  83	  95
  83	  96
  83	 100
  83	 102
  83	 103
  83	 104
  83	 105
  83	 108
  83	 110
  83	 113
  83	 119
  84	  85
  84	  91
  84	  94
  84	  96
  84	  98
  84	 101
  84	 105
  84	 107
  84	 108
  84	 110
  84	 111
  84	 113
  84	 114
  84	 117
  85	  86
  85	  92
  85	  93
  85	  94
  85	 103
  85	 105
  85	 106
  85	 107
  85	 108
  85	 109
  85	 114
  85	 116
  85	 117
  86	  87
  86	  94
  86	  95
  86	  96
  86	  97
  86	  99
  86	 100
  86	 101
  86	 107
  86	 114
  86	 116
  86	 117
  86	 118
  87	  96
  87	 103
  87	 106
  87	 109
  87	 112
  87	 114
  87	 116
  88	  91
  88	  93
  88	  95
  88	  98
  88	 102
  88	 104
  88	 105
  88	 107
  88	 108
  88	 109
  88	 113
  88	 116
  88	 117
  88	 119
  89	  92
  89	  93
  89	  96
  89	  98
  89	 100
  89	 101
  89	 106
  89	 110
  89	 112
  89	 113
  89	 119
  90	  95
  90	  97
  90	  98
  90	  99
  90	 100
  90	 103
  90	 107
  90	 109
  90	 110
  90	 111
  90	 114
  91	  95
  91	  97
  91	  99
  91	 100
  91	 101
  91	 102
  91	 105
  91	 106
  91	 107
  91	 109
  91	 111
  91	 114
  91	 115
  91	 119
  92	  95
  92	  98
  92	 100
  92	 101
  92	 105
  92	 108
  92	 109
  92	 111
  92	 114
  92	 116
  93	  94
  93	  96
  93	  97
  93	 101
  93	 107
  93	 116
  94	  98
  94	 103
  94	 105
  94	 106
  94	 112
  94	 115
  94	 118
  94	 119
  95	  96
  95	 100
  95	 101
  95	 110
  95	 113
  96	  97
  96	 101
  96	 102
  96	 103
  96	 107
  96	 114
  96	 115
  96	 116
  96	 117
  96	 119
  97	 100
  97	 101
  97	 103
  97	 107
  97	 110
  97	 111
  97	 114
  97	 115
  97	 116
  97	 119
  98	  99
  98	 101
  98	 102
  98	 104
  98	 105
  98	 106
  98	 107
  98	 108
  98	 110
  98	 112
  99	 106
  99	 109
  99	 110
  99	 113
  99	 114
  99	 115
  99	 119
 100	 101
 100	 106
 100	 108
 100	 110
 100	 113
 100	 114
 100	 115
 100	 118
 101	 102
 101	 104
 101	 105
 101	 108
 101	 109
 101	 110
 101	 112
 101	 113
 101	 115
 101	 119
 102	 104
 102	 106
 102	 107
 102	 110
 102	 112
 102	 116
 102	 118
 103	 104
 103	 106
 103	 109
 103	 111
 103	 116
 104	 108
 104	 113
 104	 117
 104	 118
 105	 106
 105	 109
 105	 110
 105	 111
 105	 114
 105	 116
 105	 117
 105	 118
 106	 109
 106	 111
 106	 112
 106	 113
 106	 114
 106	 115
 106	 117
 107	 110
 107	 111
 107	 113
 107	 117
 108	 110
 108	 111
 108	 116
 108	 118
 109	 112
 109	 118
 109	 119
 110	 114
 110	 116
 111	 112
 111	 116
 111	 119
 112	 116
 113	 118
 114	 115
 114	 117
 114	 118
 114	 119
 115	 117
 116	 117
 116	 118
 117	 118
 117	 119
;
